benchmark/results/graph__15-1000-0.10-03_7/graph__15-1000-0.10-03_7_QuintonOs_Benders_primal_sub.lp
\ This file has been generated by DOcplex
\ ENCODING=ISO-8859-1
\Problem name: Quinton Bounded Benders_primal_sub

Maximize
 obj: tau
Subject To
 c1: tau <= 0.001131221719
 c2: y_a0_proc_0 + y_a0_proc_1 + y_a0_proc_2 - tau = 0
 c3: y_a0_proc_0 <= 1
 c4: y_a0_proc_1 <= 0
 c5: y_a0_proc_2 <= 0
 c6: tau <= 0.001008064516
 c7: y_a1_proc_1 - tau = 0
 c8: y_a1_proc_1 <= 1
 c9: tau <= 0.001158748552
 c10: y_a2_proc_0 + y_a2_proc_1 - tau = 0
 c11: y_a2_proc_0 <= 1
 c12: y_a2_proc_1 <= 0
 c13: tau <= 0.001088139282
 c14: y_a3_proc_0 + y_a3_proc_1 + y_a3_proc_2 - tau = 0
 c15: y_a3_proc_0 <= 0
 c16: y_a3_proc_1 <= 0
 c17: y_a3_proc_2 <= 1
 c18: tau <= 0.001322751323
 c19: y_a4_proc_0 + y_a4_proc_1 + y_a4_proc_2 - tau = 0
 c20: y_a4_proc_0 <= 0
 c21: y_a4_proc_1 <= 1
 c22: y_a4_proc_2 <= 0
 c23: tau <= 0.000789889415
 c24: y_a5_proc_0 + y_a5_proc_1 - tau = 0
 c25: y_a5_proc_0 <= 1
 c26: y_a5_proc_1 <= 0
 c27: tau <= 0.002252252252
 c28: y_a6_proc_1 + y_a6_proc_2 - tau = 0
 c29: y_a6_proc_1 <= 0
 c30: y_a6_proc_2 <= 1
 c31: tau <= 0.001089324619
 c32: y_a7_proc_0 + y_a7_proc_1 + y_a7_proc_2 - tau = 0
 c33: y_a7_proc_0 <= 1
 c34: y_a7_proc_1 <= 0
 c35: y_a7_proc_2 <= 0
 c36: tau <= 0.002079002079
 c37: y_a8_proc_0 + y_a8_proc_1 + y_a8_proc_2 - tau = 0
 c38: y_a8_proc_0 <= 0
 c39: y_a8_proc_1 <= 0
 c40: y_a8_proc_2 <= 1
 c41: tau <= 0.000932835821
 c42: y_a9_proc_2 - tau = 0
 c43: y_a9_proc_2 <= 1
 c44: tau <= 0.000881834215
 c45: y_a10_proc_1 - tau = 0
 c46: y_a10_proc_1 <= 1
 c47: tau <= 0.001050420168
 c48: y_a11_proc_1 - tau = 0
 c49: y_a11_proc_1 <= 1
 c50: tau <= 0.000998003992
 c51: y_a12_proc_0 + y_a12_proc_1 + y_a12_proc_2 - tau = 0
 c52: y_a12_proc_0 <= 0
 c53: y_a12_proc_1 <= 0
 c54: y_a12_proc_2 <= 1
 c55: tau <= 0.001347708895
 c56: y_a13_proc_0 + y_a13_proc_1 - tau = 0
 c57: y_a13_proc_0 <= 1
 c58: y_a13_proc_1 <= 0
 c59: tau <= 0.001519756839
 c60: y_a14_proc_0 + y_a14_proc_1 + y_a14_proc_2 - tau = 0
 c61: y_a14_proc_0 <= 0
 c62: y_a14_proc_1 <= 1
 c63: y_a14_proc_2 <= 0
 c64: u_a1 - u_a0 - 884 y_a0_proc_0 - 890 y_a0_proc_1 - 1007 y_a0_proc_2 >= 0
 c65: u_a0 - u_a2 - 863 y_a2_proc_0 - 1187 y_a2_proc_1 >= 0
 c66: u_a3 - u_a1 - 992 y_a1_proc_1 >= 0
 c67: u_a4 - u_a1 - 992 y_a1_proc_1 >= -1
 c68: u_a1 - u_a5 - 1266 y_a5_proc_0 - 905 y_a5_proc_1 >= 0
 c69: u_a6 - u_a5 - 1266 y_a5_proc_0 - 905 y_a5_proc_1 >= 0
 c70: u_a7 - u_a4 - 938 y_a4_proc_0 - 756 y_a4_proc_1 - 906 y_a4_proc_2 >= 0
 c71: u_a8 - u_a6 - 1227 y_a6_proc_1 - 444 y_a6_proc_2 >= 0
 c72: u_a9 - u_a3 - 683 y_a3_proc_0 - 478 y_a3_proc_1 - 919 y_a3_proc_2 >= 0
 c73: u_a10 - u_a8 - 623 y_a8_proc_0 - 976 y_a8_proc_1 - 481 y_a8_proc_2 >= 0
 c74: u_a5 - u_a11 - 952 y_a11_proc_1 >= 0
 c75: u_a12 - u_a6 - 1227 y_a6_proc_1 - 444 y_a6_proc_2 >= 0
 c76: u_a13 - u_a12 - 1098 y_a12_proc_0 - 721 y_a12_proc_1 - 1002 y_a12_proc_2
       >= 0
 c77: u_a11 - u_a14 - 1196 y_a14_proc_0 - 658 y_a14_proc_1 - 1266 y_a14_proc_2
       >= 0
 c78: u_a2 - u_a13 - 742 y_a13_proc_0 - 1171 y_a13_proc_1 >= 0
 c79: u_a11 - u_a12 - 1098 y_a12_proc_0 - 721 y_a12_proc_1 - 1002 y_a12_proc_2
       >= -1
 c80: u_a11 - u_a8 - 623 y_a8_proc_0 - 976 y_a8_proc_1 - 481 y_a8_proc_2 >= -1
 c81: u_a13 - u_a5 - 1266 y_a5_proc_0 - 905 y_a5_proc_1 >= 0
 c82: u_a0 - u_a13 - 742 y_a13_proc_0 - 1171 y_a13_proc_1 >= 0
 c83: u_a1 - u_a7 - 918 y_a7_proc_0 - 1256 y_a7_proc_1 - 692 y_a7_proc_2 >= 0
 c84: u_a8 - u_a12 - 1098 y_a12_proc_0 - 721 y_a12_proc_1 - 1002 y_a12_proc_2
       >= 0
 c85: u_a3 - u_a6 - 1227 y_a6_proc_1 - 444 y_a6_proc_2 >= 0
 c86: u_a14 - u_a10 - 1134 y_a10_proc_1 >= -1
 c87: u_a1 - u_a0 - 890 y_a0_proc_1 >= -1249
 c88: u_a0 - u_a1 - 992 y_a1_proc_1 >= -1284
 c89: u_a2 - u_a0 - 890 y_a0_proc_1 >= -2533
 c90: u_a2 - u_a0 - 884 y_a0_proc_0 >= -1
 c91: u_a0 - u_a2 - 1187 y_a2_proc_1 >= -2532
 c92: u_a0 - u_a2 - 863 y_a2_proc_0 >= 0
 c93: u_a3 - u_a0 - 890 y_a0_proc_1 >= -2550
 c94: u_a3 - u_a0 - 1007 y_a0_proc_2 >= -1284
 c95: u_a3 - u_a0 - 884 y_a0_proc_0 >= -1284
 c96: u_a0 - u_a3 - 478 y_a3_proc_1 >= -2515
 c97: u_a0 - u_a3 - 919 y_a3_proc_2 >= -1249
 c98: u_a0 - u_a3 - 683 y_a3_proc_0 >= -1249
 c99: u_a4 - u_a0 - 890 y_a0_proc_1 >= -1249
 c100: u_a4 - u_a0 - 1007 y_a0_proc_2 >= -2515
 c101: u_a4 - u_a0 - 884 y_a0_proc_0 >= -1249
 c102: u_a0 - u_a4 - 756 y_a4_proc_1 >= -1284
 c103: u_a0 - u_a4 - 906 y_a4_proc_2 >= -2550
 c104: u_a0 - u_a4 - 938 y_a4_proc_0 >= -1284
 c105: u_a5 - u_a0 - 890 y_a0_proc_1 >= -2533
 c106: u_a5 - u_a0 - 884 y_a0_proc_0 >= -1
 c107: u_a0 - u_a5 - 905 y_a5_proc_1 >= -2532
 c108: u_a0 - u_a5 - 1266 y_a5_proc_0 >= 0
 c109: u_a6 - u_a0 - 890 y_a0_proc_1 >= -2550
 c110: u_a6 - u_a0 - 1007 y_a0_proc_2 >= -1284
 c111: u_a0 - u_a6 - 1227 y_a6_proc_1 >= -2515
 c112: u_a0 - u_a6 - 444 y_a6_proc_2 >= -1249
 c113: u_a7 - u_a0 - 890 y_a0_proc_1 >= -2517
 c114: u_a7 - u_a0 - 1007 y_a0_proc_2 >= -2517
 c115: u_a7 - u_a0 - 884 y_a0_proc_0 >= 15
 c116: u_a0 - u_a7 - 1256 y_a7_proc_1 >= -2548
 c117: u_a0 - u_a7 - 692 y_a7_proc_2 >= -2548
 c118: u_a0 - u_a7 - 918 y_a7_proc_0 >= -16
 c119: u_a8 - u_a0 - 890 y_a0_proc_1 >= -2515
 c120: u_a8 - u_a0 - 1007 y_a0_proc_2 >= -1249
 c121: u_a8 - u_a0 - 884 y_a0_proc_0 >= -1249
 c122: u_a0 - u_a8 - 976 y_a8_proc_1 >= -2550
 c123: u_a0 - u_a8 - 481 y_a8_proc_2 >= -1284
 c124: u_a0 - u_a8 - 623 y_a8_proc_0 >= -1284
 c125: u_a9 - u_a0 - 1007 y_a0_proc_2 >= -1284
 c126: u_a0 - u_a9 - 1072 y_a9_proc_2 >= -1249
 c127: u_a10 - u_a0 - 890 y_a0_proc_1 >= -1284
 c128: u_a0 - u_a10 - 1134 y_a10_proc_1 >= -1249
 c129: u_a11 - u_a0 - 890 y_a0_proc_1 >= -1249
 c130: u_a0 - u_a11 - 952 y_a11_proc_1 >= -1284
 c131: u_a12 - u_a0 - 890 y_a0_proc_1 >= -2515
 c132: u_a12 - u_a0 - 1007 y_a0_proc_2 >= -1249
 c133: u_a12 - u_a0 - 884 y_a0_proc_0 >= -1249
 c134: u_a0 - u_a12 - 721 y_a12_proc_1 >= -2550
 c135: u_a0 - u_a12 - 1002 y_a12_proc_2 >= -1284
 c136: u_a0 - u_a12 - 1098 y_a12_proc_0 >= -1284
 c137: u_a13 - u_a0 - 890 y_a0_proc_1 >= -2533
 c138: u_a13 - u_a0 - 884 y_a0_proc_0 >= -1
 c139: u_a0 - u_a13 - 1171 y_a13_proc_1 >= -2532
 c140: u_a0 - u_a13 - 742 y_a13_proc_0 >= 0
 c141: u_a14 - u_a0 - 890 y_a0_proc_1 >= -1249
 c142: u_a14 - u_a0 - 1007 y_a0_proc_2 >= -2515
 c143: u_a14 - u_a0 - 884 y_a0_proc_0 >= -1249
 c144: u_a0 - u_a14 - 658 y_a14_proc_1 >= -1284
 c145: u_a0 - u_a14 - 1266 y_a14_proc_2 >= -2550
 c146: u_a0 - u_a14 - 1196 y_a14_proc_0 >= -1284
 c147: u_a2 - u_a1 - 992 y_a1_proc_1 >= -1284
 c148: u_a1 - u_a2 - 1187 y_a2_proc_1 >= -1249
 c149: u_a3 - u_a1 - 992 y_a1_proc_1 >= -1284
 c150: u_a1 - u_a3 - 478 y_a3_proc_1 >= -1249
 c151: u_a4 - u_a1 - 992 y_a1_proc_1 >= -1
 c152: u_a1 - u_a4 - 756 y_a4_proc_1 >= 0
 c153: u_a5 - u_a1 - 992 y_a1_proc_1 >= -1284
 c154: u_a1 - u_a5 - 905 y_a5_proc_1 >= -1249
 c155: u_a6 - u_a1 - 992 y_a1_proc_1 >= -1284
 c156: u_a1 - u_a6 - 1227 y_a6_proc_1 >= -1249
 c157: u_a7 - u_a1 - 992 y_a1_proc_1 >= -1284
 c158: u_a1 - u_a7 - 1256 y_a7_proc_1 >= -1249
 c159: u_a8 - u_a1 - 992 y_a1_proc_1 >= -1284
 c160: u_a1 - u_a8 - 976 y_a8_proc_1 >= -1249
 c161: u_a10 - u_a1 - 992 y_a1_proc_1 >= -17
 c162: u_a1 - u_a10 - 1134 y_a10_proc_1 >= 16
 c163: u_a11 - u_a1 - 992 y_a1_proc_1 >= -18
 c164: u_a1 - u_a11 - 952 y_a11_proc_1 >= 17
 c165: u_a12 - u_a1 - 992 y_a1_proc_1 >= -1284
 c166: u_a1 - u_a12 - 721 y_a12_proc_1 >= -1249
 c167: u_a13 - u_a1 - 992 y_a1_proc_1 >= -1284
 c168: u_a1 - u_a13 - 1171 y_a13_proc_1 >= -1249
 c169: u_a14 - u_a1 - 992 y_a1_proc_1 >= -18
 c170: u_a1 - u_a14 - 658 y_a14_proc_1 >= 17
 c171: u_a3 - u_a2 - 1187 y_a2_proc_1 >= -2550
 c172: u_a3 - u_a2 - 863 y_a2_proc_0 >= -1284
 c173: u_a2 - u_a3 - 478 y_a3_proc_1 >= -2515
 c174: u_a2 - u_a3 - 683 y_a3_proc_0 >= -1249
 c175: u_a4 - u_a2 - 1187 y_a2_proc_1 >= -1284
 c176: u_a4 - u_a2 - 863 y_a2_proc_0 >= -1284
 c177: u_a2 - u_a4 - 756 y_a4_proc_1 >= -1249
 c178: u_a2 - u_a4 - 938 y_a4_proc_0 >= -1249
 c179: u_a5 - u_a2 - 1187 y_a2_proc_1 >= -2533
 c180: u_a5 - u_a2 - 863 y_a2_proc_0 >= -1
 c181: u_a2 - u_a5 - 905 y_a5_proc_1 >= -2532
 c182: u_a2 - u_a5 - 1266 y_a5_proc_0 >= 0
 c183: u_a6 - u_a2 - 1187 y_a2_proc_1 >= -2550
 c184: u_a2 - u_a6 - 1227 y_a6_proc_1 >= -2515
 c185: u_a7 - u_a2 - 1187 y_a2_proc_1 >= -2517
 c186: u_a7 - u_a2 - 863 y_a2_proc_0 >= 15
 c187: u_a2 - u_a7 - 1256 y_a7_proc_1 >= -2548
 c188: u_a2 - u_a7 - 918 y_a7_proc_0 >= -16
 c189: u_a8 - u_a2 - 1187 y_a2_proc_1 >= -2515
 c190: u_a8 - u_a2 - 863 y_a2_proc_0 >= -1249
 c191: u_a2 - u_a8 - 976 y_a8_proc_1 >= -2550
 c192: u_a2 - u_a8 - 623 y_a8_proc_0 >= -1284
 c193: u_a10 - u_a2 - 1187 y_a2_proc_1 >= -1249
 c194: u_a2 - u_a10 - 1134 y_a10_proc_1 >= -1284
 c195: u_a11 - u_a2 - 1187 y_a2_proc_1 >= -1284
 c196: u_a2 - u_a11 - 952 y_a11_proc_1 >= -1249
 c197: u_a12 - u_a2 - 1187 y_a2_proc_1 >= -2550
 c198: u_a12 - u_a2 - 863 y_a2_proc_0 >= -1284
 c199: u_a2 - u_a12 - 721 y_a12_proc_1 >= -2515
 c200: u_a2 - u_a12 - 1098 y_a12_proc_0 >= -1249
 c201: u_a13 - u_a2 - 1187 y_a2_proc_1 >= -2533
 c202: u_a13 - u_a2 - 863 y_a2_proc_0 >= -1
 c203: u_a2 - u_a13 - 1171 y_a13_proc_1 >= -2532
 c204: u_a2 - u_a13 - 742 y_a13_proc_0 >= 0
 c205: u_a14 - u_a2 - 1187 y_a2_proc_1 >= -1249
 c206: u_a14 - u_a2 - 863 y_a2_proc_0 >= -1249
 c207: u_a2 - u_a14 - 658 y_a14_proc_1 >= -1284
 c208: u_a2 - u_a14 - 1196 y_a14_proc_0 >= -1284
 c209: u_a4 - u_a3 - 478 y_a3_proc_1 >= -1284
 c210: u_a4 - u_a3 - 919 y_a3_proc_2 >= -1284
 c211: u_a4 - u_a3 - 683 y_a3_proc_0 >= -2550
 c212: u_a3 - u_a4 - 756 y_a4_proc_1 >= -1249
 c213: u_a3 - u_a4 - 906 y_a4_proc_2 >= -1249
 c214: u_a3 - u_a4 - 938 y_a4_proc_0 >= -2515
 c215: u_a5 - u_a3 - 478 y_a3_proc_1 >= -2550
 c216: u_a5 - u_a3 - 683 y_a3_proc_0 >= -1284
 c217: u_a3 - u_a5 - 905 y_a5_proc_1 >= -2515
 c218: u_a3 - u_a5 - 1266 y_a5_proc_0 >= -1249
 c219: u_a6 - u_a3 - 478 y_a3_proc_1 >= -2550
 c220: u_a6 - u_a3 - 919 y_a3_proc_2 >= -18
 c221: u_a3 - u_a6 - 1227 y_a6_proc_1 >= -2515
 c222: u_a3 - u_a6 - 444 y_a6_proc_2 >= 17
 c223: u_a7 - u_a3 - 478 y_a3_proc_1 >= -2515
 c224: u_a7 - u_a3 - 919 y_a3_proc_2 >= -1249
 c225: u_a7 - u_a3 - 683 y_a3_proc_0 >= -1249
 c226: u_a3 - u_a7 - 1256 y_a7_proc_1 >= -2550
 c227: u_a3 - u_a7 - 692 y_a7_proc_2 >= -1284
 c228: u_a3 - u_a7 - 918 y_a7_proc_0 >= -1284
 c229: u_a8 - u_a3 - 478 y_a3_proc_1 >= -2550
 c230: u_a8 - u_a3 - 919 y_a3_proc_2 >= -18
 c231: u_a8 - u_a3 - 683 y_a3_proc_0 >= -2550
 c232: u_a3 - u_a8 - 976 y_a8_proc_1 >= -2515
 c233: u_a3 - u_a8 - 481 y_a8_proc_2 >= 17
 c234: u_a3 - u_a8 - 623 y_a8_proc_0 >= -2515
 c235: u_a9 - u_a3 - 919 y_a3_proc_2 >= 0
 c236: u_a3 - u_a9 - 1072 y_a9_proc_2 >= -1
 c237: u_a10 - u_a3 - 478 y_a3_proc_1 >= -1284
 c238: u_a3 - u_a10 - 1134 y_a10_proc_1 >= -1249
 c239: u_a11 - u_a3 - 478 y_a3_proc_1 >= -1249
 c240: u_a3 - u_a11 - 952 y_a11_proc_1 >= -1284
 c241: u_a12 - u_a3 - 478 y_a3_proc_1 >= -2550
 c242: u_a12 - u_a3 - 919 y_a3_proc_2 >= -18
 c243: u_a12 - u_a3 - 683 y_a3_proc_0 >= -2550
 c244: u_a3 - u_a12 - 721 y_a12_proc_1 >= -2515
 c245: u_a3 - u_a12 - 1002 y_a12_proc_2 >= 17
 c246: u_a3 - u_a12 - 1098 y_a12_proc_0 >= -2515
 c247: u_a13 - u_a3 - 478 y_a3_proc_1 >= -2550
 c248: u_a13 - u_a3 - 683 y_a3_proc_0 >= -1284
 c249: u_a3 - u_a13 - 1171 y_a13_proc_1 >= -2515
 c250: u_a3 - u_a13 - 742 y_a13_proc_0 >= -1249
 c251: u_a14 - u_a3 - 478 y_a3_proc_1 >= -1249
 c252: u_a14 - u_a3 - 919 y_a3_proc_2 >= -1249
 c253: u_a14 - u_a3 - 683 y_a3_proc_0 >= -2515
 c254: u_a3 - u_a14 - 658 y_a14_proc_1 >= -1284
 c255: u_a3 - u_a14 - 1266 y_a14_proc_2 >= -1284
 c256: u_a3 - u_a14 - 1196 y_a14_proc_0 >= -2550
 c257: u_a5 - u_a4 - 756 y_a4_proc_1 >= -1284
 c258: u_a5 - u_a4 - 938 y_a4_proc_0 >= -1284
 c259: u_a4 - u_a5 - 905 y_a5_proc_1 >= -1249
 c260: u_a4 - u_a5 - 1266 y_a5_proc_0 >= -1249
 c261: u_a6 - u_a4 - 756 y_a4_proc_1 >= -1284
 c262: u_a6 - u_a4 - 906 y_a4_proc_2 >= -1284
 c263: u_a4 - u_a6 - 1227 y_a6_proc_1 >= -1249
 c264: u_a4 - u_a6 - 444 y_a6_proc_2 >= -1249
 c265: u_a7 - u_a4 - 756 y_a4_proc_1 >= -1284
 c266: u_a7 - u_a4 - 906 y_a4_proc_2 >= -2550
 c267: u_a7 - u_a4 - 938 y_a4_proc_0 >= -1284
 c268: u_a4 - u_a7 - 1256 y_a7_proc_1 >= -1249
 c269: u_a4 - u_a7 - 692 y_a7_proc_2 >= -2515
 c270: u_a4 - u_a7 - 918 y_a7_proc_0 >= -1249
 c271: u_a8 - u_a4 - 756 y_a4_proc_1 >= -1284
 c272: u_a8 - u_a4 - 906 y_a4_proc_2 >= -1284
 c273: u_a8 - u_a4 - 938 y_a4_proc_0 >= -2550
 c274: u_a4 - u_a8 - 976 y_a8_proc_1 >= -1249
 c275: u_a4 - u_a8 - 481 y_a8_proc_2 >= -1249
 c276: u_a4 - u_a8 - 623 y_a8_proc_0 >= -2515
 c277: u_a9 - u_a4 - 906 y_a4_proc_2 >= -1284
 c278: u_a4 - u_a9 - 1072 y_a9_proc_2 >= -1249
 c279: u_a10 - u_a4 - 756 y_a4_proc_1 >= -16
 c280: u_a4 - u_a10 - 1134 y_a10_proc_1 >= 15
 c281: u_a11 - u_a4 - 756 y_a4_proc_1 >= -17
 c282: u_a4 - u_a11 - 952 y_a11_proc_1 >= 16
 c283: u_a12 - u_a4 - 756 y_a4_proc_1 >= -1284
 c284: u_a12 - u_a4 - 906 y_a4_proc_2 >= -1284
 c285: u_a12 - u_a4 - 938 y_a4_proc_0 >= -2550
 c286: u_a4 - u_a12 - 721 y_a12_proc_1 >= -1249
 c287: u_a4 - u_a12 - 1002 y_a12_proc_2 >= -1249
 c288: u_a4 - u_a12 - 1098 y_a12_proc_0 >= -2515
 c289: u_a13 - u_a4 - 756 y_a4_proc_1 >= -1284
 c290: u_a13 - u_a4 - 938 y_a4_proc_0 >= -1284
 c291: u_a4 - u_a13 - 1171 y_a13_proc_1 >= -1249
 c292: u_a4 - u_a13 - 742 y_a13_proc_0 >= -1249
 c293: u_a14 - u_a4 - 756 y_a4_proc_1 >= -17
 c294: u_a14 - u_a4 - 906 y_a4_proc_2 >= -2549
 c295: u_a14 - u_a4 - 938 y_a4_proc_0 >= -2549
 c296: u_a4 - u_a14 - 658 y_a14_proc_1 >= 16
 c297: u_a4 - u_a14 - 1266 y_a14_proc_2 >= -2516
 c298: u_a4 - u_a14 - 1196 y_a14_proc_0 >= -2516
 c299: u_a6 - u_a5 - 905 y_a5_proc_1 >= -2550
 c300: u_a5 - u_a6 - 1227 y_a6_proc_1 >= -2515
 c301: u_a7 - u_a5 - 905 y_a5_proc_1 >= -2516
 c302: u_a7 - u_a5 - 1266 y_a5_proc_0 >= 16
 c303: u_a5 - u_a7 - 1256 y_a7_proc_1 >= -2549
 c304: u_a5 - u_a7 - 918 y_a7_proc_0 >= -17
 c305: u_a8 - u_a5 - 905 y_a5_proc_1 >= -2550
 c306: u_a8 - u_a5 - 1266 y_a5_proc_0 >= -1284
 c307: u_a5 - u_a8 - 976 y_a8_proc_1 >= -2515
 c308: u_a5 - u_a8 - 623 y_a8_proc_0 >= -1249
 c309: u_a10 - u_a5 - 905 y_a5_proc_1 >= -1284
 c310: u_a5 - u_a10 - 1134 y_a10_proc_1 >= -1249
 c311: u_a11 - u_a5 - 905 y_a5_proc_1 >= -1284
 c312: u_a5 - u_a11 - 952 y_a11_proc_1 >= -1249
 c313: u_a12 - u_a5 - 905 y_a5_proc_1 >= -2550
 c314: u_a12 - u_a5 - 1266 y_a5_proc_0 >= -1284
 c315: u_a5 - u_a12 - 721 y_a12_proc_1 >= -2515
 c316: u_a5 - u_a12 - 1098 y_a12_proc_0 >= -1249
 c317: u_a13 - u_a5 - 905 y_a5_proc_1 >= -2532
 c318: u_a13 - u_a5 - 1266 y_a5_proc_0 >= 0
 c319: u_a5 - u_a13 - 1171 y_a13_proc_1 >= -2533
 c320: u_a5 - u_a13 - 742 y_a13_proc_0 >= -1
 c321: u_a14 - u_a5 - 905 y_a5_proc_1 >= -1284
 c322: u_a14 - u_a5 - 1266 y_a5_proc_0 >= -1284
 c323: u_a5 - u_a14 - 658 y_a14_proc_1 >= -1249
 c324: u_a5 - u_a14 - 1196 y_a14_proc_0 >= -1249
 c325: u_a7 - u_a6 - 1227 y_a6_proc_1 >= -2550
 c326: u_a7 - u_a6 - 444 y_a6_proc_2 >= -1284
 c327: u_a6 - u_a7 - 1256 y_a7_proc_1 >= -2515
 c328: u_a6 - u_a7 - 692 y_a7_proc_2 >= -1249
 c329: u_a8 - u_a6 - 1227 y_a6_proc_1 >= -2532
 c330: u_a8 - u_a6 - 444 y_a6_proc_2 >= 0
 c331: u_a6 - u_a8 - 976 y_a8_proc_1 >= -2533
 c332: u_a6 - u_a8 - 481 y_a8_proc_2 >= -1
 c333: u_a9 - u_a6 - 444 y_a6_proc_2 >= 17
 c334: u_a6 - u_a9 - 1072 y_a9_proc_2 >= -18
 c335: u_a10 - u_a6 - 1227 y_a6_proc_1 >= -1284
 c336: u_a6 - u_a10 - 1134 y_a10_proc_1 >= -1249
 c337: u_a11 - u_a6 - 1227 y_a6_proc_1 >= -1284
 c338: u_a6 - u_a11 - 952 y_a11_proc_1 >= -1249
 c339: u_a12 - u_a6 - 1227 y_a6_proc_1 >= -2532
 c340: u_a12 - u_a6 - 444 y_a6_proc_2 >= 0
 c341: u_a6 - u_a12 - 721 y_a12_proc_1 >= -2533
 c342: u_a6 - u_a12 - 1002 y_a12_proc_2 >= -1
 c343: u_a13 - u_a6 - 1227 y_a6_proc_1 >= -2550
 c344: u_a6 - u_a13 - 1171 y_a13_proc_1 >= -2515
 c345: u_a14 - u_a6 - 1227 y_a6_proc_1 >= -1284
 c346: u_a14 - u_a6 - 444 y_a6_proc_2 >= -1284
 c347: u_a6 - u_a14 - 658 y_a14_proc_1 >= -1249
 c348: u_a6 - u_a14 - 1266 y_a14_proc_2 >= -1249
 c349: u_a8 - u_a7 - 1256 y_a7_proc_1 >= -2550
 c350: u_a8 - u_a7 - 692 y_a7_proc_2 >= -1284
 c351: u_a8 - u_a7 - 918 y_a7_proc_0 >= -1284
 c352: u_a7 - u_a8 - 976 y_a8_proc_1 >= -2515
 c353: u_a7 - u_a8 - 481 y_a8_proc_2 >= -1249
 c354: u_a7 - u_a8 - 623 y_a8_proc_0 >= -1249
 c355: u_a9 - u_a7 - 692 y_a7_proc_2 >= -1284
 c356: u_a7 - u_a9 - 1072 y_a9_proc_2 >= -1249
 c357: u_a10 - u_a7 - 1256 y_a7_proc_1 >= -1249
 c358: u_a7 - u_a10 - 1134 y_a10_proc_1 >= -1284
 c359: u_a11 - u_a7 - 1256 y_a7_proc_1 >= -1284
 c360: u_a7 - u_a11 - 952 y_a11_proc_1 >= -1249
 c361: u_a12 - u_a7 - 1256 y_a7_proc_1 >= -2515
 c362: u_a12 - u_a7 - 692 y_a7_proc_2 >= -1249
 c363: u_a12 - u_a7 - 918 y_a7_proc_0 >= -1249
 c364: u_a7 - u_a12 - 721 y_a12_proc_1 >= -2550
 c365: u_a7 - u_a12 - 1002 y_a12_proc_2 >= -1284
 c366: u_a7 - u_a12 - 1098 y_a12_proc_0 >= -1284
 c367: u_a13 - u_a7 - 1256 y_a7_proc_1 >= -2548
 c368: u_a13 - u_a7 - 918 y_a7_proc_0 >= -16
 c369: u_a7 - u_a13 - 1171 y_a13_proc_1 >= -2517
 c370: u_a7 - u_a13 - 742 y_a13_proc_0 >= 15
 c371: u_a14 - u_a7 - 1256 y_a7_proc_1 >= -1284
 c372: u_a14 - u_a7 - 692 y_a7_proc_2 >= -2550
 c373: u_a14 - u_a7 - 918 y_a7_proc_0 >= -1284
 c374: u_a7 - u_a14 - 658 y_a14_proc_1 >= -1249
 c375: u_a7 - u_a14 - 1266 y_a14_proc_2 >= -2515
 c376: u_a7 - u_a14 - 1196 y_a14_proc_0 >= -1249
 c377: u_a9 - u_a8 - 481 y_a8_proc_2 >= 17
 c378: u_a8 - u_a9 - 1072 y_a9_proc_2 >= -18
 c379: u_a10 - u_a8 - 976 y_a8_proc_1 >= -1284
 c380: u_a8 - u_a10 - 1134 y_a10_proc_1 >= -1249
 c381: u_a11 - u_a8 - 976 y_a8_proc_1 >= -1284
 c382: u_a8 - u_a11 - 952 y_a11_proc_1 >= -1249
 c383: u_a12 - u_a8 - 976 y_a8_proc_1 >= -2533
 c384: u_a12 - u_a8 - 481 y_a8_proc_2 >= -1
 c385: u_a12 - u_a8 - 623 y_a8_proc_0 >= -2533
 c386: u_a8 - u_a12 - 721 y_a12_proc_1 >= -2532
 c387: u_a8 - u_a12 - 1002 y_a12_proc_2 >= 0
 c388: u_a8 - u_a12 - 1098 y_a12_proc_0 >= -2532
 c389: u_a13 - u_a8 - 976 y_a8_proc_1 >= -2550
 c390: u_a13 - u_a8 - 623 y_a8_proc_0 >= -1284
 c391: u_a8 - u_a13 - 1171 y_a13_proc_1 >= -2515
 c392: u_a8 - u_a13 - 742 y_a13_proc_0 >= -1249
 c393: u_a14 - u_a8 - 976 y_a8_proc_1 >= -1284
 c394: u_a14 - u_a8 - 481 y_a8_proc_2 >= -1284
 c395: u_a14 - u_a8 - 623 y_a8_proc_0 >= -2550
 c396: u_a8 - u_a14 - 658 y_a14_proc_1 >= -1249
 c397: u_a8 - u_a14 - 1266 y_a14_proc_2 >= -1249
 c398: u_a8 - u_a14 - 1196 y_a14_proc_0 >= -2515
 c399: u_a12 - u_a9 - 1072 y_a9_proc_2 >= -18
 c400: u_a9 - u_a12 - 1002 y_a12_proc_2 >= 17
 c401: u_a14 - u_a9 - 1072 y_a9_proc_2 >= -1249
 c402: u_a9 - u_a14 - 1266 y_a14_proc_2 >= -1284
 c403: u_a11 - u_a10 - 1134 y_a10_proc_1 >= -1
 c404: u_a10 - u_a11 - 952 y_a11_proc_1 >= 0
 c405: u_a12 - u_a10 - 1134 y_a10_proc_1 >= -1284
 c406: u_a10 - u_a12 - 721 y_a12_proc_1 >= -1249
 c407: u_a13 - u_a10 - 1134 y_a10_proc_1 >= -1284
 c408: u_a10 - u_a13 - 1171 y_a13_proc_1 >= -1249
 c409: u_a14 - u_a10 - 1134 y_a10_proc_1 >= -1
 c410: u_a10 - u_a14 - 658 y_a14_proc_1 >= 0
 c411: u_a12 - u_a11 - 952 y_a11_proc_1 >= -1284
 c412: u_a11 - u_a12 - 721 y_a12_proc_1 >= -1249
 c413: u_a13 - u_a11 - 952 y_a11_proc_1 >= -1284
 c414: u_a11 - u_a13 - 1171 y_a13_proc_1 >= -1249
 c415: u_a14 - u_a11 - 952 y_a11_proc_1 >= -1
 c416: u_a11 - u_a14 - 658 y_a14_proc_1 >= 0
 c417: u_a13 - u_a12 - 721 y_a12_proc_1 >= -2515
 c418: u_a13 - u_a12 - 1098 y_a12_proc_0 >= -1249
 c419: u_a12 - u_a13 - 1171 y_a13_proc_1 >= -2550
 c420: u_a12 - u_a13 - 742 y_a13_proc_0 >= -1284
 c421: u_a14 - u_a12 - 721 y_a12_proc_1 >= -1284
 c422: u_a14 - u_a12 - 1002 y_a12_proc_2 >= -1284
 c423: u_a14 - u_a12 - 1098 y_a12_proc_0 >= -2550
 c424: u_a12 - u_a14 - 658 y_a14_proc_1 >= -1249
 c425: u_a12 - u_a14 - 1266 y_a14_proc_2 >= -1249
 c426: u_a12 - u_a14 - 1196 y_a14_proc_0 >= -2515
 c427: u_a14 - u_a13 - 1171 y_a13_proc_1 >= -1284
 c428: u_a14 - u_a13 - 742 y_a13_proc_0 >= -1284
 c429: u_a13 - u_a14 - 658 y_a14_proc_1 >= -1249
 c430: u_a13 - u_a14 - 1196 y_a14_proc_0 >= -1249

Bounds
End
